\ Model ../instances/darp_bc/a2-4.txt
\ LP format - for model browsing. Use MPS format to capture full model detail.
Minimize
  5.3 x[0,1,0] + 5.3 x[0,1,1] + 9.04 x[0,2,0] + 9.04 x[0,2,1]
   + 6.61 x[0,3,0] + 6.61 x[0,3,1] + 12.44 x[0,4,0] + 12.44 x[0,4,1]
   + 8.87 x[0,5,0] + 8.87 x[0,5,1] + 6.96 x[0,6,0] + 6.96 x[0,6,1]
   + 5.3 x[1,0,0] + 5.3 x[1,0,1] + 14.02 x[1,2,0] + 14.02 x[1,2,1]
   + 7.53 x[1,3,0] + 7.53 x[1,3,1] + 15.71 x[1,4,0] + 15.71 x[1,4,1]
   + 7.75 x[1,5,0] + 7.75 x[1,5,1] + 12.24 x[1,6,0] + 12.24 x[1,6,1]
   + 5.3 x[1,7,0] + 5.3 x[1,7,1] + 9.04 x[2,0,0] + 9.04 x[2,0,1]
   + 14.02 x[2,1,0] + 14.02 x[2,1,1] + 14.08 x[2,3,0] + 14.08 x[2,3,1]
   + 14.87 x[2,4,0] + 14.87 x[2,4,1] + 13.18 x[2,5,0] + 13.18 x[2,5,1]
   + 4.72 x[2,6,0] + 4.72 x[2,6,1] + 9.04 x[2,7,0] + 9.04 x[2,7,1]
   + 6.61 x[3,0,0] + 6.61 x[3,0,1] + 7.53 x[3,1,0] + 7.53 x[3,1,1]
   + 14.08 x[3,2,0] + 14.08 x[3,2,1] + 8.66 x[3,4,0] + 8.66 x[3,4,1]
   + 14.46 x[3,5,0] + 14.46 x[3,5,1] + 10.13 x[3,6,0] + 10.13 x[3,6,1]
   + 6.61 x[3,7,0] + 6.61 x[3,7,1] + 12.44 x[4,0,0] + 12.44 x[4,0,1]
   + 15.71 x[4,1,0] + 15.71 x[4,1,1] + 14.87 x[4,2,0] + 14.87 x[4,2,1]
   + 8.66 x[4,3,0] + 8.66 x[4,3,1] + 21.31 x[4,5,0] + 21.31 x[4,5,1]
   + 10.21 x[4,6,0] + 10.21 x[4,6,1] + 12.44 x[4,7,0] + 12.44 x[4,7,1]
   + 8.87 x[5,0,0] + 8.87 x[5,0,1] + 7.75 x[5,1,0] + 7.75 x[5,1,1]
   + 13.18 x[5,2,0] + 13.18 x[5,2,1] + 14.46 x[5,3,0] + 14.46 x[5,3,1]
   + 21.31 x[5,4,0] + 21.31 x[5,4,1] + 14.11 x[5,6,0] + 14.11 x[5,6,1]
   + 8.87 x[5,7,0] + 8.87 x[5,7,1] + 6.96 x[6,0,0] + 6.96 x[6,0,1]
   + 12.24 x[6,1,0] + 12.24 x[6,1,1] + 4.72 x[6,2,0] + 4.72 x[6,2,1]
   + 10.13 x[6,3,0] + 10.13 x[6,3,1] + 10.21 x[6,4,0] + 10.21 x[6,4,1]
   + 14.11 x[6,5,0] + 14.11 x[6,5,1] + 6.96 x[6,7,0] + 6.96 x[6,7,1]
   + 5.3 x[7,1,0] + 5.3 x[7,1,1] + 9.04 x[7,2,0] + 9.04 x[7,2,1]
   + 6.61 x[7,3,0] + 6.61 x[7,3,1] + 12.44 x[7,4,0] + 12.44 x[7,4,1]
   + 8.87 x[7,5,0] + 8.87 x[7,5,1] + 6.96 x[7,6,0] + 6.96 x[7,6,1]
   + 0 B_ini(0) + 0 B_ini(1) + 0 B_end(0) + 0 B_end(1) + 0 B(1) + 0 B(2)
   + 0 B(3) + 0 B(4) + 0 B(5) + 0 B(6) + 0 L(1) + 0 L(2) + 0 L(3)
   + 0 Q_ini(0) + 0 Q_ini(1) + 0 Q_end(0) + 0 Q_end(1) + 0 Q(1) + 0 Q(2)
   + 0 Q(3) + 0 Q(4) + 0 Q(5) + 0 Q(6)
Subject To
 R0: x[0,0,0] = 0
 R1: x[1,1,0] = 0
 R2: x[2,2,0] = 0
 R3: x[3,3,0] = 0
 R4: x[4,4,0] = 0
 R5: x[5,5,0] = 0
 R6: x[6,6,0] = 0
 R7: x[7,7,0] = 0
 R8: x[1,0,0] = 0
 R9: x[2,0,0] = 0
 R10: x[3,0,0] = 0
 R11: x[4,0,0] = 0
 R12: x[5,0,0] = 0
 R13: x[6,0,0] = 0
 R14: x[7,0,0] = 0
 R15: x[7,0,0] = 0
 R16: x[7,1,0] = 0
 R17: x[7,2,0] = 0
 R18: x[7,3,0] = 0
 R19: x[7,4,0] = 0
 R20: x[7,5,0] = 0
 R21: x[7,6,0] = 0
 R22: x[1,7,0] = 0
 R23: x[4,1,0] = 0
 R24: x[2,7,0] = 0
 R25: x[5,2,0] = 0
 R26: x[3,7,0] = 0
 R27: x[6,3,0] = 0
 R28: x[0,4,0] = 0
 R29: x[0,5,0] = 0
 R30: x[0,6,0] = 0
 R31: x[0,0,1] = 0
 R32: x[1,1,1] = 0
 R33: x[2,2,1] = 0
 R34: x[3,3,1] = 0
 R35: x[4,4,1] = 0
 R36: x[5,5,1] = 0
 R37: x[6,6,1] = 0
 R38: x[7,7,1] = 0
 R39: x[1,0,1] = 0
 R40: x[2,0,1] = 0
 R41: x[3,0,1] = 0
 R42: x[4,0,1] = 0
 R43: x[5,0,1] = 0
 R44: x[6,0,1] = 0
 R45: x[7,0,1] = 0
 R46: x[7,0,1] = 0
 R47: x[7,1,1] = 0
 R48: x[7,2,1] = 0
 R49: x[7,3,1] = 0
 R50: x[7,4,1] = 0
 R51: x[7,5,1] = 0
 R52: x[7,6,1] = 0
 R53: x[1,7,1] = 0
 R54: x[4,1,1] = 0
 R55: x[2,7,1] = 0
 R56: x[5,2,1] = 0
 R57: x[3,7,1] = 0
 R58: x[6,3,1] = 0
 R59: x[0,4,1] = 0
 R60: x[0,5,1] = 0
 R61: x[0,6,1] = 0
 R62: x[1,0,0] = 1
 R63: x[1,0,1] = 1
 R64: x[1,2,0] = 1
 R65: x[1,2,1] = 1
 R66: x[1,3,0] = 1
 R67: x[1,3,1] = 1
 R68: x[1,4,0] = 1
 R69: x[1,4,1] = 1
 R70: x[1,5,0] = 1
 R71: x[1,5,1] = 1
 R72: x[1,6,0] = 1
 R73: x[1,6,1] = 1
 R74: x[1,7,0] = 1
 R75: x[1,7,1] = 1
 R76: x[2,0,0] = 1
 R77: x[2,0,1] = 1
 R78: x[2,1,0] = 1
 R79: x[2,1,1] = 1
 R80: x[2,3,0] = 1
 R81: x[2,3,1] = 1
 R82: x[2,4,0] = 1
 R83: x[2,4,1] = 1
 R84: x[2,5,0] = 1
 R85: x[2,5,1] = 1
 R86: x[2,6,0] = 1
 R87: x[2,6,1] = 1
 R88: x[2,7,0] = 1
 R89: x[2,7,1] = 1
 R90: x[3,0,0] = 1
 R91: x[3,0,1] = 1
 R92: x[3,1,0] = 1
 R93: x[3,1,1] = 1
 R94: x[3,2,0] = 1
 R95: x[3,2,1] = 1
 R96: x[3,4,0] = 1
 R97: x[3,4,1] = 1
 R98: x[3,5,0] = 1
 R99: x[3,5,1] = 1
 R100: x[3,6,0] = 1
 R101: x[3,6,1] = 1
 R102: x[3,7,0] = 1
 R103: x[3,7,1] = 1
 R104: x[1,0,0] + x[1,2,0] + x[1,3,0] + x[1,4,0] + x[1,5,0] + x[1,6,0]
   + x[1,7,0] - x[4,0,0] - x[4,1,0] - x[4,2,0] - x[4,3,0] - x[4,5,0]
   - x[4,6,0] - x[4,7,0] = 0
 R105: x[2,0,0] + x[2,1,0] + x[2,3,0] + x[2,4,0] + x[2,5,0] + x[2,6,0]
   + x[2,7,0] - x[5,0,0] - x[5,1,0] - x[5,2,0] - x[5,3,0] - x[5,4,0]
   - x[5,6,0] - x[5,7,0] = 0
 R106: x[3,0,0] + x[3,1,0] + x[3,2,0] + x[3,4,0] + x[3,5,0] + x[3,6,0]
   + x[3,7,0] - x[6,0,0] - x[6,1,0] - x[6,2,0] - x[6,3,0] - x[6,4,0]
   - x[6,5,0] - x[6,7,0] = 0
 R107: x[1,0,1] + x[1,2,1] + x[1,3,1] + x[1,4,1] + x[1,5,1] + x[1,6,1]
   + x[1,7,1] - x[4,0,1] - x[4,1,1] - x[4,2,1] - x[4,3,1] - x[4,5,1]
   - x[4,6,1] - x[4,7,1] = 0
 R108: x[2,0,1] + x[2,1,1] + x[2,3,1] + x[2,4,1] + x[2,5,1] + x[2,6,1]
   + x[2,7,1] - x[5,0,1] - x[5,1,1] - x[5,2,1] - x[5,3,1] - x[5,4,1]
   - x[5,6,1] - x[5,7,1] = 0
 R109: x[3,0,1] + x[3,1,1] + x[3,2,1] + x[3,4,1] + x[3,5,1] + x[3,6,1]
   + x[3,7,1] - x[6,0,1] - x[6,1,1] - x[6,2,1] - x[6,3,1] - x[6,4,1]
   - x[6,5,1] - x[6,7,1] = 0
 R110: x[0,1,0] + x[0,2,0] + x[0,3,0] + x[0,4,0] + x[0,5,0] + x[0,6,0]
   + x[0,7,0] = 1
 R111: x[0,1,1] + x[0,2,1] + x[0,3,1] + x[0,4,1] + x[0,5,1] + x[0,6,1]
   + x[0,7,1] = 1
 R112: x[0,1,0] - x[1,0,0] - x[1,2,0] - x[1,3,0] - x[1,4,0] - x[1,5,0]
   - x[1,6,0] - x[1,7,0] + x[2,1,0] + x[3,1,0] + x[4,1,0] + x[5,1,0]
   + x[6,1,0] + x[7,1,0] = 0
 R113: x[0,2,0] + x[1,2,0] - x[2,0,0] - x[2,1,0] - x[2,3,0] - x[2,4,0]
   - x[2,5,0] - x[2,6,0] - x[2,7,0] + x[3,2,0] + x[4,2,0] + x[5,2,0]
   + x[6,2,0] + x[7,2,0] = 0
 R114: x[0,3,0] + x[1,3,0] + x[2,3,0] - x[3,0,0] - x[3,1,0] - x[3,2,0]
   - x[3,4,0] - x[3,5,0] - x[3,6,0] - x[3,7,0] + x[4,3,0] + x[5,3,0]
   + x[6,3,0] + x[7,3,0] = 0
 R115: x[0,4,0] + x[1,4,0] + x[2,4,0] + x[3,4,0] - x[4,0,0] - x[4,1,0]
   - x[4,2,0] - x[4,3,0] - x[4,5,0] - x[4,6,0] - x[4,7,0] + x[5,4,0]
   + x[6,4,0] + x[7,4,0] = 0
 R116: x[0,5,0] + x[1,5,0] + x[2,5,0] + x[3,5,0] + x[4,5,0] - x[5,0,0]
   - x[5,1,0] - x[5,2,0] - x[5,3,0] - x[5,4,0] - x[5,6,0] - x[5,7,0]
   + x[6,5,0] + x[7,5,0] = 0
 R117: x[0,6,0] + x[1,6,0] + x[2,6,0] + x[3,6,0] + x[4,6,0] + x[5,6,0]
   - x[6,0,0] - x[6,1,0] - x[6,2,0] - x[6,3,0] - x[6,4,0] - x[6,5,0]
   - x[6,7,0] + x[7,6,0] = 0
 R118: x[0,1,1] - x[1,0,1] - x[1,2,1] - x[1,3,1] - x[1,4,1] - x[1,5,1]
   - x[1,6,1] - x[1,7,1] + x[2,1,1] + x[3,1,1] + x[4,1,1] + x[5,1,1]
   + x[6,1,1] + x[7,1,1] = 0
 R119: x[0,2,1] + x[1,2,1] - x[2,0,1] - x[2,1,1] - x[2,3,1] - x[2,4,1]
   - x[2,5,1] - x[2,6,1] - x[2,7,1] + x[3,2,1] + x[4,2,1] + x[5,2,1]
   + x[6,2,1] + x[7,2,1] = 0
 R120: x[0,3,1] + x[1,3,1] + x[2,3,1] - x[3,0,1] - x[3,1,1] - x[3,2,1]
   - x[3,4,1] - x[3,5,1] - x[3,6,1] - x[3,7,1] + x[4,3,1] + x[5,3,1]
   + x[6,3,1] + x[7,3,1] = 0
 R121: x[0,4,1] + x[1,4,1] + x[2,4,1] + x[3,4,1] - x[4,0,1] - x[4,1,1]
   - x[4,2,1] - x[4,3,1] - x[4,5,1] - x[4,6,1] - x[4,7,1] + x[5,4,1]
   + x[6,4,1] + x[7,4,1] = 0
 R122: x[0,5,1] + x[1,5,1] + x[2,5,1] + x[3,5,1] + x[4,5,1] - x[5,0,1]
   - x[5,1,1] - x[5,2,1] - x[5,3,1] - x[5,4,1] - x[5,6,1] - x[5,7,1]
   + x[6,5,1] + x[7,5,1] = 0
 R123: x[0,6,1] + x[1,6,1] + x[2,6,1] + x[3,6,1] + x[4,6,1] + x[5,6,1]
   - x[6,0,1] - x[6,1,1] - x[6,2,1] - x[6,3,1] - x[6,4,1] - x[6,5,1]
   - x[6,7,1] + x[7,6,1] = 0
 R124: x[0,7,0] + x[1,7,0] + x[2,7,0] + x[3,7,0] + x[4,7,0] + x[5,7,0]
   + x[6,7,0] = 1
 R125: x[0,7,1] + x[1,7,1] + x[2,7,1] + x[3,7,1] + x[4,7,1] + x[5,7,1]
   + x[6,7,1] = 1
Bounds
 B_ini(0) <= 480
 B_ini(1) <= 480
 B_end(0) <= 480
 B_end(1) <= 480
 B(1) <= 1440
 B(2) <= 1440
 B(3) <= 1440
 B(4) <= 1440
 B(5) <= 1440
 B(6) <= 1440
 15.71 <= L(1) <= 30
 13.18 <= L(2) <= 30
 10.13 <= L(3) <= 30
 Q_ini(0) <= 3
 Q_ini(1) <= 3
 Q_end(0) <= 3
 Q_end(1) <= 3
 1 <= Q(1) <= 3
 1 <= Q(2) <= 3
 1 <= Q(3) <= 3
 Q(4) <= 2
 Q(5) <= 2
 Q(6) <= 2
Binaries
 x[0,0,0] x[0,0,1] x[0,1,0] x[0,1,1] x[0,2,0] x[0,2,1] x[0,3,0] x[0,3,1]
 x[0,4,0] x[0,4,1] x[0,5,0] x[0,5,1] x[0,6,0] x[0,6,1] x[0,7,0] x[0,7,1]
 x[1,0,0] x[1,0,1] x[1,1,0] x[1,1,1] x[1,2,0] x[1,2,1] x[1,3,0] x[1,3,1]
 x[1,4,0] x[1,4,1] x[1,5,0] x[1,5,1] x[1,6,0] x[1,6,1] x[1,7,0] x[1,7,1]
 x[2,0,0] x[2,0,1] x[2,1,0] x[2,1,1] x[2,2,0] x[2,2,1] x[2,3,0] x[2,3,1]
 x[2,4,0] x[2,4,1] x[2,5,0] x[2,5,1] x[2,6,0] x[2,6,1] x[2,7,0] x[2,7,1]
 x[3,0,0] x[3,0,1] x[3,1,0] x[3,1,1] x[3,2,0] x[3,2,1] x[3,3,0] x[3,3,1]
 x[3,4,0] x[3,4,1] x[3,5,0] x[3,5,1] x[3,6,0] x[3,6,1] x[3,7,0] x[3,7,1]
 x[4,0,0] x[4,0,1] x[4,1,0] x[4,1,1] x[4,2,0] x[4,2,1] x[4,3,0] x[4,3,1]
 x[4,4,0] x[4,4,1] x[4,5,0] x[4,5,1] x[4,6,0] x[4,6,1] x[4,7,0] x[4,7,1]
 x[5,0,0] x[5,0,1] x[5,1,0] x[5,1,1] x[5,2,0] x[5,2,1] x[5,3,0] x[5,3,1]
 x[5,4,0] x[5,4,1] x[5,5,0] x[5,5,1] x[5,6,0] x[5,6,1] x[5,7,0] x[5,7,1]
 x[6,0,0] x[6,0,1] x[6,1,0] x[6,1,1] x[6,2,0] x[6,2,1] x[6,3,0] x[6,3,1]
 x[6,4,0] x[6,4,1] x[6,5,0] x[6,5,1] x[6,6,0] x[6,6,1] x[6,7,0] x[6,7,1]
 x[7,0,0] x[7,0,1] x[7,1,0] x[7,1,1] x[7,2,0] x[7,2,1] x[7,3,0] x[7,3,1]
 x[7,4,0] x[7,4,1] x[7,5,0] x[7,5,1] x[7,6,0] x[7,6,1] x[7,7,0] x[7,7,1]
End
